c Result of efficient AIG-to-CNF conversion using package CNF
p cnf 342 1211
-2 3 95 207 211 0
-2 -3 -95 207 211 0
2 -211 0
2 -3 95 0
2 -207 0
2 3 -95 0
-3 4 92 0
-3 -4 -92 0
3 -4 92 0
3 4 -92 0
-4 279 -5 0
-4 -5 34 0
-4 279 34 0
4 5 -34 0
4 -279 5 0
4 -279 -34 0
5 -311 6 0
5 311 -6 0
-5 311 6 0
-5 -311 -6 0
-6 312 7 0
6 -312 0
6 -7 0
-7 313 8 0
7 -313 0
7 -8 0
-8 314 9 0
8 -314 0
8 -9 0
-9 315 10 0
9 -315 0
9 -10 0
-10 316 11 0
10 -316 0
10 -11 0
-11 317 12 0
11 -317 0
11 -12 0
-12 318 13 0
12 -318 0
12 -13 0
-13 319 14 0
13 -319 0
13 -14 0
-14 320 15 0
14 -320 0
14 -15 0
-15 321 16 0
15 -321 0
15 -16 0
-16 322 17 0
16 -322 0
16 -17 0
-17 323 18 0
17 -323 0
17 -18 0
-18 324 19 0
18 -324 0
18 -19 0
-19 325 20 0
19 -325 0
19 -20 0
-20 326 21 0
20 -326 0
20 -21 0
-21 327 22 0
21 -327 0
21 -22 0
-22 328 23 0
22 -328 0
22 -23 0
-23 329 24 0
23 -329 0
23 -24 0
-24 330 25 0
24 -330 0
24 -25 0
-25 331 26 0
25 -331 0
25 -26 0
-26 332 27 0
26 -332 0
26 -27 0
-27 333 28 0
27 -333 0
27 -28 0
-28 334 29 0
28 -334 0
28 -29 0
-29 335 30 0
29 -335 0
29 -30 0
-30 336 31 0
30 -336 0
30 -31 0
-31 337 32 0
31 -337 0
31 -32 0
-32 338 339 33 0
32 -33 0
32 -339 0
32 -338 0
-33 340 341 0
33 -340 0
33 -341 0
-34 280 -35 0
-34 -35 36 0
-34 280 36 0
34 35 -36 0
34 -280 35 0
34 -280 -36 0
35 -312 7 0
35 312 -7 0
-35 312 7 0
-35 -312 -7 0
-36 281 -37 0
-36 -37 38 0
-36 281 38 0
36 37 -38 0
36 -281 37 0
36 -281 -38 0
37 -313 8 0
37 313 -8 0
-37 313 8 0
-37 -313 -8 0
-38 282 -39 0
-38 -39 40 0
-38 282 40 0
38 39 -40 0
38 -282 39 0
38 -282 -40 0
39 -314 9 0
39 314 -9 0
-39 314 9 0
-39 -314 -9 0
-40 283 -41 0
-40 -41 42 0
-40 283 42 0
40 41 -42 0
40 -283 41 0
40 -283 -42 0
41 -315 10 0
41 315 -10 0
-41 315 10 0
-41 -315 -10 0
-42 284 -43 0
-42 -43 44 0
-42 284 44 0
42 43 -44 0
42 -284 43 0
42 -284 -44 0
43 -316 11 0
43 316 -11 0
-43 316 11 0
-43 -316 -11 0
-44 285 -45 0
-44 -45 46 0
-44 285 46 0
44 45 -46 0
44 -285 45 0
44 -285 -46 0
45 -317 12 0
45 317 -12 0
-45 317 12 0
-45 -317 -12 0
-46 286 -47 0
-46 -47 48 0
-46 286 48 0
46 47 -48 0
46 -286 47 0
46 -286 -48 0
47 -318 13 0
47 318 -13 0
-47 318 13 0
-47 -318 -13 0
-48 287 -49 0
-48 -49 50 0
-48 287 50 0
48 49 -50 0
48 -287 49 0
48 -287 -50 0
49 -319 14 0
49 319 -14 0
-49 319 14 0
-49 -319 -14 0
-50 288 -51 0
-50 -51 52 0
-50 288 52 0
50 51 -52 0
50 -288 51 0
50 -288 -52 0
51 -320 15 0
51 320 -15 0
-51 320 15 0
-51 -320 -15 0
-52 289 -53 0
-52 -53 54 0
-52 289 54 0
52 53 -54 0
52 -289 53 0
52 -289 -54 0
53 -321 16 0
53 321 -16 0
-53 321 16 0
-53 -321 -16 0
-54 290 -55 0
-54 -55 56 0
-54 290 56 0
54 55 -56 0
54 -290 55 0
54 -290 -56 0
55 -322 17 0
55 322 -17 0
-55 322 17 0
-55 -322 -17 0
-56 291 -57 0
-56 -57 58 0
-56 291 58 0
56 57 -58 0
56 -291 57 0
56 -291 -58 0
57 -323 18 0
57 323 -18 0
-57 323 18 0
-57 -323 -18 0
-58 292 -59 0
-58 -59 60 0
-58 292 60 0
58 59 -60 0
58 -292 59 0
58 -292 -60 0
59 -324 19 0
59 324 -19 0
-59 324 19 0
-59 -324 -19 0
-60 293 -61 0
-60 -61 62 0
-60 293 62 0
60 61 -62 0
60 -293 61 0
60 -293 -62 0
61 -325 20 0
61 325 -20 0
-61 325 20 0
-61 -325 -20 0
-62 294 -63 0
-62 -63 64 0
-62 294 64 0
62 63 -64 0
62 -294 63 0
62 -294 -64 0
63 -326 21 0
63 326 -21 0
-63 326 21 0
-63 -326 -21 0
-64 295 -65 0
-64 -65 66 0
-64 295 66 0
64 65 -66 0
64 -295 65 0
64 -295 -66 0
65 -327 22 0
65 327 -22 0
-65 327 22 0
-65 -327 -22 0
-66 296 -67 0
-66 -67 68 0
-66 296 68 0
66 67 -68 0
66 -296 67 0
66 -296 -68 0
67 -328 23 0
67 328 -23 0
-67 328 23 0
-67 -328 -23 0
-68 297 -69 0
-68 -69 70 0
-68 297 70 0
68 69 -70 0
68 -297 69 0
68 -297 -70 0
69 -329 24 0
69 329 -24 0
-69 329 24 0
-69 -329 -24 0
-70 298 -71 0
-70 -71 72 0
-70 298 72 0
70 71 -72 0
70 -298 71 0
70 -298 -72 0
71 -330 25 0
71 330 -25 0
-71 330 25 0
-71 -330 -25 0
-72 299 -73 0
-72 -73 74 0
-72 299 74 0
72 73 -74 0
72 -299 73 0
72 -299 -74 0
73 -331 26 0
73 331 -26 0
-73 331 26 0
-73 -331 -26 0
-74 300 -75 0
-74 -75 76 0
-74 300 76 0
74 75 -76 0
74 -300 75 0
74 -300 -76 0
75 -332 27 0
75 332 -27 0
-75 332 27 0
-75 -332 -27 0
-76 301 -77 0
-76 -77 78 0
-76 301 78 0
76 77 -78 0
76 -301 77 0
76 -301 -78 0
77 -333 28 0
77 333 -28 0
-77 333 28 0
-77 -333 -28 0
-78 302 -79 0
-78 -79 80 0
-78 302 80 0
78 79 -80 0
78 -302 79 0
78 -302 -80 0
79 -334 29 0
79 334 -29 0
-79 334 29 0
-79 -334 -29 0
-80 303 -81 0
-80 -81 82 0
-80 303 82 0
80 81 -82 0
80 -303 81 0
80 -303 -82 0
81 -335 30 0
81 335 -30 0
-81 335 30 0
-81 -335 -30 0
-82 304 -83 0
-82 -83 84 0
-82 304 84 0
82 83 -84 0
82 -304 83 0
82 -304 -84 0
83 -336 31 0
83 336 -31 0
-83 336 31 0
-83 -336 -31 0
-84 305 -85 0
-84 -85 86 0
-84 305 86 0
84 85 -86 0
84 -305 85 0
84 -305 -86 0
85 -337 32 0
85 337 -32 0
-85 337 32 0
-85 -337 -32 0
-86 -87 89 0
-86 306 89 0
-86 306 -87 0
86 -306 -89 0
86 -306 87 0
86 87 -89 0
87 -338 88 0
87 338 -88 0
-87 338 88 0
-87 -338 -88 0
-88 339 33 0
88 -339 0
88 -33 0
89 -307 90 0
89 90 -91 0
89 -307 -91 0
-89 307 91 0
-89 -90 91 0
-89 307 -90 0
-90 339 33 0
-90 -339 -33 0
90 -339 33 0
90 339 -33 0
91 -308 -340 -341 0
91 -309 340 341 0
91 -308 340 341 0
91 -308 -309 -340 0
-91 308 309 0
-91 308 -340 0
-91 340 -341 0
-91 309 -340 341 0
-92 93 94 0
-92 -93 -94 0
92 -93 94 0
92 93 -94 0
-93 311 6 0
93 -311 0
93 -6 0
-94 -278 -310 0
-94 278 310 0
94 278 -310 0
94 -278 310 0
95 96 -205 0
95 -96 205 0
-95 -96 -205 0
-95 96 205 0
-96 97 202 0
96 -97 0
96 -202 0
-97 98 199 0
97 -98 0
97 -199 0
-98 99 196 0
98 -99 0
98 -196 0
-99 100 193 0
99 -100 0
99 -193 0
-100 101 190 0
100 -101 0
100 -190 0
-101 102 187 0
101 -102 0
101 -187 0
-102 103 184 0
102 -103 0
102 -184 0
-103 104 181 0
103 -104 0
103 -181 0
-104 105 178 0
104 -105 0
104 -178 0
-105 106 175 0
105 -106 0
105 -175 0
-106 107 172 0
106 -107 0
106 -172 0
-107 108 169 0
107 -108 0
107 -169 0
-108 109 166 0
108 -109 0
108 -166 0
-109 110 163 0
109 -110 0
109 -163 0
-110 111 160 0
110 -111 0
110 -160 0
-111 112 157 0
111 -112 0
111 -157 0
-112 113 152 -155 -156 0
-112 113 152 155 156 0
112 -152 0
112 155 -156 0
112 -113 0
112 -155 156 0
-113 114 149 0
113 -114 0
113 -149 0
-114 115 146 0
114 -115 0
114 -146 0
-115 116 141 142 143 0
-115 116 -141 -142 143 0
115 -143 0
115 -141 142 0
115 -116 0
115 141 -142 0
-116 117 136 137 138 0
-116 117 -136 -137 138 0
116 -138 0
116 -136 137 0
116 -117 0
116 136 -137 0
-117 118 131 132 133 0
-117 118 -131 -132 133 0
117 -133 0
117 -131 132 0
117 -118 0
117 131 -132 0
-118 119 -126 -127 128 0
-118 119 126 127 128 0
118 -128 0
118 -126 127 0
118 -119 0
118 126 -127 0
-119 309 341 120 125 0
-119 -309 -341 120 -125 0
119 341 -125 0
119 -309 125 0
119 -120 0
119 309 -341 0
120 121 -122 0
120 -121 122 0
-120 -121 -122 0
-120 121 122 0
121 307 -339 0
121 -307 339 0
-121 -307 -339 0
-121 307 339 0
122 -123 -124 0
122 -309 -341 -124 0
-122 124 0
-122 309 123 0
-122 341 123 0
123 -308 -340 0
-123 308 0
-123 340 0
-124 308 340 0
124 -308 0
124 -340 0
125 308 -340 0
125 -308 340 0
-125 -308 -340 0
-125 308 340 0
126 306 -338 0
126 -306 338 0
-126 -306 -338 0
-126 306 338 0
127 -307 -339 0
127 -339 -122 0
127 -307 -122 0
-127 307 122 0
-127 339 122 0
-127 307 339 0
128 129 -130 0
128 -129 130 0
-128 -129 -130 0
-128 129 130 0
129 305 -337 0
129 -305 337 0
-129 -305 -337 0
-129 305 337 0
130 -306 -338 0
130 -338 -127 0
130 -306 -127 0
-130 306 127 0
-130 338 127 0
-130 306 338 0
131 304 -336 0
131 -304 336 0
-131 -304 -336 0
-131 304 336 0
132 -305 -337 0
132 -337 -130 0
132 -305 -130 0
-132 305 130 0
-132 337 130 0
-132 305 337 0
-133 -134 -135 0
-133 134 135 0
133 134 -135 0
133 -134 135 0
134 303 -335 0
134 -303 335 0
-134 -303 -335 0
-134 303 335 0
135 -304 -336 0
135 -336 -132 0
135 -304 -132 0
-135 304 132 0
-135 336 132 0
-135 304 336 0
136 302 -334 0
136 -302 334 0
-136 -302 -334 0
-136 302 334 0
137 -303 -335 0
137 -335 -135 0
137 -303 -135 0
-137 303 135 0
-137 335 135 0
-137 303 335 0
-138 -139 -140 0
-138 139 140 0
138 139 -140 0
138 -139 140 0
139 301 -333 0
139 -301 333 0
-139 -301 -333 0
-139 301 333 0
140 -302 -334 0
140 -334 -137 0
140 -302 -137 0
-140 302 137 0
-140 334 137 0
-140 302 334 0
141 300 -332 0
141 -300 332 0
-141 -300 -332 0
-141 300 332 0
142 -301 -333 0
142 -333 -140 0
142 -301 -140 0
-142 301 140 0
-142 333 140 0
-142 301 333 0
-143 -144 -145 0
-143 144 145 0
143 144 -145 0
143 -144 145 0
144 299 -331 0
144 -299 331 0
-144 -299 -331 0
-144 299 331 0
145 -300 -332 0
145 -332 -142 0
145 -300 -142 0
-145 300 142 0
-145 332 142 0
-145 300 332 0
-146 -147 -148 0
-146 147 148 0
146 147 -148 0
146 -147 148 0
147 298 -330 0
147 -298 330 0
-147 -298 -330 0
-147 298 330 0
148 -299 -331 0
148 -331 -145 0
148 -299 -145 0
-148 299 145 0
-148 331 145 0
-148 299 331 0
-149 -150 -151 0
-149 150 151 0
149 150 -151 0
149 -150 151 0
150 297 -329 0
150 -297 329 0
-150 -297 -329 0
-150 297 329 0
151 -298 -330 0
151 -330 -148 0
151 -298 -148 0
-151 298 148 0
-151 330 148 0
-151 298 330 0
-152 -153 -154 0
-152 153 154 0
152 153 -154 0
152 -153 154 0
153 296 -328 0
153 -296 328 0
-153 -296 -328 0
-153 296 328 0
154 -297 -329 0
154 -329 -151 0
154 -297 -151 0
-154 297 151 0
-154 329 151 0
-154 297 329 0
155 295 -327 0
155 -295 327 0
-155 -295 -327 0
-155 295 327 0
156 -296 -328 0
156 -328 -154 0
156 -296 -154 0
-156 296 154 0
-156 328 154 0
-156 296 328 0
-157 -158 -159 0
-157 158 159 0
157 158 -159 0
157 -158 159 0
158 294 -326 0
158 -294 326 0
-158 -294 -326 0
-158 294 326 0
159 -295 -327 0
159 -327 -156 0
159 -295 -156 0
-159 295 156 0
-159 327 156 0
-159 295 327 0
-160 -161 -162 0
-160 161 162 0
160 161 -162 0
160 -161 162 0
161 293 -325 0
161 -293 325 0
-161 -293 -325 0
-161 293 325 0
162 -294 -326 0
162 -326 -159 0
162 -294 -159 0
-162 294 159 0
-162 326 159 0
-162 294 326 0
-163 -164 -165 0
-163 164 165 0
163 164 -165 0
163 -164 165 0
164 292 -324 0
164 -292 324 0
-164 -292 -324 0
-164 292 324 0
165 -293 -325 0
165 -325 -162 0
165 -293 -162 0
-165 293 162 0
-165 325 162 0
-165 293 325 0
-166 -167 -168 0
-166 167 168 0
166 167 -168 0
166 -167 168 0
167 291 -323 0
167 -291 323 0
-167 -291 -323 0
-167 291 323 0
168 -292 -324 0
168 -324 -165 0
168 -292 -165 0
-168 292 165 0
-168 324 165 0
-168 292 324 0
-169 -170 -171 0
-169 170 171 0
169 170 -171 0
169 -170 171 0
170 290 -322 0
170 -290 322 0
-170 -290 -322 0
-170 290 322 0
171 -291 -323 0
171 -323 -168 0
171 -291 -168 0
-171 291 168 0
-171 323 168 0
-171 291 323 0
-172 -173 -174 0
-172 173 174 0
172 173 -174 0
172 -173 174 0
173 289 -321 0
173 -289 321 0
-173 -289 -321 0
-173 289 321 0
174 -290 -322 0
174 -322 -171 0
174 -290 -171 0
-174 290 171 0
-174 322 171 0
-174 290 322 0
-175 -176 -177 0
-175 176 177 0
175 176 -177 0
175 -176 177 0
176 288 -320 0
176 -288 320 0
-176 -288 -320 0
-176 288 320 0
177 -289 -321 0
177 -321 -174 0
177 -289 -174 0
-177 289 174 0
-177 321 174 0
-177 289 321 0
-178 -179 -180 0
-178 179 180 0
178 179 -180 0
178 -179 180 0
179 287 -319 0
179 -287 319 0
-179 -287 -319 0
-179 287 319 0
180 -288 -320 0
180 -320 -177 0
180 -288 -177 0
-180 288 177 0
-180 320 177 0
-180 288 320 0
-181 -182 -183 0
-181 182 183 0
181 182 -183 0
181 -182 183 0
182 286 -318 0
182 -286 318 0
-182 -286 -318 0
-182 286 318 0
183 -287 -319 0
183 -319 -180 0
183 -287 -180 0
-183 287 180 0
-183 319 180 0
-183 287 319 0
-184 -185 -186 0
-184 185 186 0
184 185 -186 0
184 -185 186 0
185 285 -317 0
185 -285 317 0
-185 -285 -317 0
-185 285 317 0
186 -286 -318 0
186 -318 -183 0
186 -286 -183 0
-186 286 183 0
-186 318 183 0
-186 286 318 0
-187 -188 -189 0
-187 188 189 0
187 188 -189 0
187 -188 189 0
188 284 -316 0
188 -284 316 0
-188 -284 -316 0
-188 284 316 0
189 -285 -317 0
189 -317 -186 0
189 -285 -186 0
-189 285 186 0
-189 317 186 0
-189 285 317 0
-190 -191 -192 0
-190 191 192 0
190 191 -192 0
190 -191 192 0
191 283 -315 0
191 -283 315 0
-191 -283 -315 0
-191 283 315 0
192 -284 -316 0
192 -316 -189 0
192 -284 -189 0
-192 284 189 0
-192 316 189 0
-192 284 316 0
-193 -194 -195 0
-193 194 195 0
193 194 -195 0
193 -194 195 0
194 282 -314 0
194 -282 314 0
-194 -282 -314 0
-194 282 314 0
195 -283 -315 0
195 -315 -192 0
195 -283 -192 0
-195 283 192 0
-195 315 192 0
-195 283 315 0
-196 -197 -198 0
-196 197 198 0
196 197 -198 0
196 -197 198 0
197 281 -313 0
197 -281 313 0
-197 -281 -313 0
-197 281 313 0
198 -282 -314 0
198 -314 -195 0
198 -282 -195 0
-198 282 195 0
-198 314 195 0
-198 282 314 0
-199 -200 -201 0
-199 200 201 0
199 200 -201 0
199 -200 201 0
200 280 -312 0
200 -280 312 0
-200 -280 -312 0
-200 280 312 0
201 -281 -313 0
201 -313 -198 0
201 -281 -198 0
-201 281 198 0
-201 313 198 0
-201 281 313 0
-202 -203 -204 0
-202 203 204 0
202 203 -204 0
202 -203 204 0
203 279 -311 0
203 -279 311 0
-203 -279 -311 0
-203 279 311 0
204 -280 -312 0
204 -312 -201 0
204 -280 -201 0
-204 280 201 0
-204 312 201 0
-204 280 312 0
205 94 -206 0
205 -94 206 0
-205 -94 -206 0
-205 94 206 0
206 -279 -311 0
206 -311 -204 0
206 -279 -204 0
-206 279 204 0
-206 311 204 0
-206 279 311 0
207 208 -209 0
207 -208 209 0
-207 -208 -209 0
-207 208 209 0
208 -97 202 0
208 97 -202 0
-208 97 202 0
-208 -97 -202 0
209 -34 210 0
209 34 -210 0
-209 34 210 0
-209 -34 -210 0
-210 -279 -5 0
-210 279 5 0
210 279 -5 0
210 -279 5 0
-211 212 216 217 219 0
-211 212 -216 -217 219 0
211 -219 0
211 -216 217 0
211 -212 0
211 216 -217 0
212 213 -214 0
212 -213 214 0
-212 -213 -214 0
-212 213 214 0
213 -98 199 0
213 98 -199 0
-213 98 199 0
-213 -98 -199 0
214 -36 215 0
214 36 -215 0
-214 36 215 0
-214 -36 -215 0
-215 -280 -35 0
-215 280 35 0
215 280 -35 0
215 -280 35 0
216 -99 196 0
216 99 -196 0
-216 99 196 0
-216 -99 -196 0
217 -38 218 0
217 38 -218 0
-217 38 218 0
-217 -38 -218 0
-218 -281 -37 0
-218 281 37 0
218 281 -37 0
218 -281 37 0
-219 220 224 225 227 0
-219 220 -224 -225 227 0
219 -227 0
219 -224 225 0
219 -220 0
219 224 -225 0
220 221 -222 0
220 -221 222 0
-220 -221 -222 0
-220 221 222 0
221 -100 193 0
221 100 -193 0
-221 100 193 0
-221 -100 -193 0
222 -40 223 0
222 40 -223 0
-222 40 223 0
-222 -40 -223 0
-223 -282 -39 0
-223 282 39 0
223 282 -39 0
223 -282 39 0
224 -101 190 0
224 101 -190 0
-224 101 190 0
-224 -101 -190 0
225 -42 226 0
225 42 -226 0
-225 42 226 0
-225 -42 -226 0
-226 -283 -41 0
-226 283 41 0
226 283 -41 0
226 -283 41 0
-227 228 232 233 235 0
-227 228 -232 -233 235 0
227 -235 0
227 -232 233 0
227 -228 0
227 232 -233 0
228 229 -230 0
228 -229 230 0
-228 -229 -230 0
-228 229 230 0
229 -102 187 0
229 102 -187 0
-229 102 187 0
-229 -102 -187 0
230 -44 231 0
230 44 -231 0
-230 44 231 0
-230 -44 -231 0
-231 -284 -43 0
-231 284 43 0
231 284 -43 0
231 -284 43 0
232 -103 184 0
232 103 -184 0
-232 103 184 0
-232 -103 -184 0
233 -46 234 0
233 46 -234 0
-233 46 234 0
-233 -46 -234 0
-234 -285 -45 0
-234 285 45 0
234 285 -45 0
234 -285 45 0
-235 236 237 239 243 0
-235 -236 -237 239 243 0
235 -239 0
235 236 -237 0
235 -243 0
235 -236 237 0
236 -104 181 0
236 104 -181 0
-236 104 181 0
-236 -104 -181 0
237 -48 238 0
237 48 -238 0
-237 48 238 0
-237 -48 -238 0
-238 -286 -47 0
-238 286 47 0
238 286 -47 0
238 -286 47 0
239 240 -241 0
239 -240 241 0
-239 -240 -241 0
-239 240 241 0
240 -105 178 0
240 105 -178 0
-240 105 178 0
-240 -105 -178 0
241 -50 242 0
241 50 -242 0
-241 50 242 0
-241 -50 -242 0
-242 -287 -49 0
-242 287 49 0
242 287 -49 0
242 -287 49 0
-243 244 245 247 251 0
-243 -244 -245 247 251 0
243 -247 0
243 244 -245 0
243 -251 0
243 -244 245 0
244 -106 175 0
244 106 -175 0
-244 106 175 0
-244 -106 -175 0
245 -52 246 0
245 52 -246 0
-245 52 246 0
-245 -52 -246 0
-246 -288 -51 0
-246 288 51 0
246 288 -51 0
246 -288 51 0
247 248 -249 0
247 -248 249 0
-247 -248 -249 0
-247 248 249 0
248 -107 172 0
248 107 -172 0
-248 107 172 0
-248 -107 -172 0
249 -54 250 0
249 54 -250 0
-249 54 250 0
-249 -54 -250 0
-250 -289 -53 0
-250 289 53 0
250 289 -53 0
250 -289 53 0
-251 252 253 255 259 0
-251 -252 -253 255 259 0
251 -255 0
251 252 -253 0
251 -259 0
251 -252 253 0
252 -108 169 0
252 108 -169 0
-252 108 169 0
-252 -108 -169 0
253 -56 254 0
253 56 -254 0
-253 56 254 0
-253 -56 -254 0
-254 -290 -55 0
-254 290 55 0
254 290 -55 0
254 -290 55 0
255 256 -257 0
255 -256 257 0
-255 -256 -257 0
-255 256 257 0
256 -109 166 0
256 109 -166 0
-256 109 166 0
-256 -109 -166 0
257 -58 258 0
257 58 -258 0
-257 58 258 0
-257 -58 -258 0
-258 -291 -57 0
-258 291 57 0
258 291 -57 0
258 -291 57 0
-259 260 261 263 267 0
-259 -260 -261 263 267 0
259 -263 0
259 260 -261 0
259 -267 0
259 -260 261 0
260 -110 163 0
260 110 -163 0
-260 110 163 0
-260 -110 -163 0
261 -60 262 0
261 60 -262 0
-261 60 262 0
-261 -60 -262 0
-262 -292 -59 0
-262 292 59 0
262 292 -59 0
262 -292 59 0
263 264 -265 0
263 -264 265 0
-263 -264 -265 0
-263 264 265 0
264 -111 160 0
264 111 -160 0
-264 111 160 0
-264 -111 -160 0
265 -62 266 0
265 62 -266 0
-265 62 266 0
-265 -62 -266 0
-266 -293 -61 0
-266 293 61 0
266 293 -61 0
266 -293 61 0
-267 -268 -269 271 0
-267 268 269 271 0
267 -271 0
267 -268 269 0
267 268 -269 0
268 -112 157 0
268 112 -157 0
-268 112 157 0
-268 -112 -157 0
269 -64 270 0
269 64 -270 0
-269 64 270 0
-269 -64 -270 0
-270 -294 -63 0
-270 294 63 0
270 294 -63 0
270 -294 63 0
-271 272 273 -275 -276 0
-271 -272 -273 -275 -276 0
-271 272 273 275 276 0
-271 -272 -273 275 276 0
271 272 -273 0
271 -272 273 0
271 275 -276 0
271 -275 276 0
272 -114 149 0
272 114 -149 0
-272 114 149 0
-272 -114 -149 0
273 -70 274 0
273 70 -274 0
-273 70 274 0
-273 -70 -274 0
-274 -297 -69 0
-274 297 69 0
274 297 -69 0
274 -297 69 0
275 -115 146 0
275 115 -146 0
-275 115 146 0
-275 -115 -146 0
276 -72 277 0
276 72 -277 0
-276 72 277 0
-276 -72 -277 0
-277 -298 -71 0
-277 298 71 0
277 298 -71 0
277 -298 71 0
-342 0
2 0

